(declare-const a Real)
(declare-const b Real)
(declare-const c Real)
(assert (= (+ a b c) 3))
(assert (> a 0))
(assert (> b 0))
(assert (> c 0))
(assert (not (<= (+ 212992 (* -98304 (pow (+ (pow a 2) (pow b 2) (* a b)) (/ 1 2))) (* 5 (pow (+ a b c) 8)) (* -256 (pow 3 (/ 1 2)) (pow (+ (* 98304 (pow a 2)) (* 98304 (pow b 2)) (* 196608 (pow c 2)) (* 98304 a c) (* 98304 b c)) (pow 2 -1)))) 0)))
(check-sat)
(get-model)
(exit)